################### Instance Number: 19
Numero di nodi nella rete: 100
Numero di archi nella rete: 1020
Numero di Ordini: 200
########################### CREATION OF THE ILP MODEL ############################
Start TIME to creation of the model: 2016-07-16 11:23:05.975000
FINISH TIME to creation of the model: 2016-07-16 11:23:31.294000
Impiegati 25.3190000057 secondi.
########################### WRITE THE LP MODEL ############################
############################ INIZIO A RISOLVERE IL PROBLEMA ##########################

Gurobi Optimizer version 6.5.1 build v6.5.1rc3 (win64)
Copyright (c) 2016, Gurobi Optimization, Inc.

Read LP format model from file C:\Users\Filippo\AppData\Local\Temp\2588-pulp.lp
Reading time = 1.47 seconds
(null): 21220 rows, 204000 columns, 816000 nonzeros
Optimize a model with 21220 rows, 204000 columns and 816000 nonzeros
Coefficient statistics:
  Matrix range    [1e+00, 1e+01]
  Objective range [2e+01, 3e+03]
  Bounds range    [1e+00, 1e+00]
  RHS range       [1e+00, 2e+02]
Presolve removed 210 rows and 2189 columns
Presolve time: 1.54s
Presolved: 21010 rows, 201811 columns, 764831 nonzeros
Variable types: 0 continuous, 201811 integer (201811 binary)

Root relaxation: objective 3.228769e+05, 5826 iterations, 0.64 seconds

    Nodes    |    Current Node    |     Objective Bounds      |     Work
 Expl Unexpl |  Obj  Depth IntInf | Incumbent    BestBd   Gap | It/Node Time

     0     0 322876.868    0  362          - 322876.868      -     -    3s
H    0     0                    337440.91310 322876.868  4.32%     -    3s
H    0     0                    330385.43780 322876.868  2.27%     -    7s
     0     0 326677.810    0  433 330385.438 326677.810  1.12%     -    9s
H    0     0                    330133.79590 326677.810  1.05%     -   12s
     0     0 327236.656    0  413 330133.796 327236.656  0.88%     -   13s
     0     0 328251.643    0  526 330133.796 328251.643  0.57%     -   16s
     0     0 328657.094    0  499 330133.796 328657.094  0.45%     -   17s
     0     0 329060.733    0  587 330133.796 329060.733  0.33%     -   19s
     0     0 329060.733    0  361 330133.796 329060.733  0.33%     -   22s
     0     0 329060.733    0  461 330133.796 329060.733  0.33%     -   24s
     0     0 329060.733    0  514 330133.796 329060.733  0.33%     -   25s
     0     0 329060.733    0  578 330133.796 329060.733  0.33%     -   27s
     0     0 329223.736    0  626 330133.796 329223.736  0.28%     -   28s
     0     0 329366.890    0  636 330133.796 329366.890  0.23%     -   29s
     0     0 329366.890    0  298 330133.796 329366.890  0.23%     -   31s
     0     0 329366.890    0  389 330133.796 329366.890  0.23%     -   33s
     0     0 329366.890    0  496 330133.796 329366.890  0.23%     -   33s
     0     0 329366.890    0  639 330133.796 329366.890  0.23%     -   35s
     0     0 329366.890    0  548 330133.796 329366.890  0.23%     -   36s
     0     0 329441.246    0  650 330133.796 329441.246  0.21%     -   36s
     0     0 329490.983    0  625 330133.796 329490.983  0.19%     -   36s
     0     0 329588.584    0  586 330133.796 329588.584  0.17%     -   37s
     0     0 329588.584    0  233 330133.796 329588.584  0.17%     -   38s
     0     0 329588.584    0  321 330133.796 329588.584  0.17%     -   38s
     0     0 329588.584    0  360 330133.796 329588.584  0.17%     -   39s
     0     0 329588.584    0  596 330133.796 329588.584  0.17%     -   39s
     0     0 329588.584    0  400 330133.796 329588.584  0.17%     -   40s
     0     0 329588.584    0  578 330133.796 329588.584  0.17%     -   40s
     0     0 329588.584    0  535 330133.796 329588.584  0.17%     -   40s
     0     0 329602.766    0  588 330133.796 329602.766  0.16%     -   41s
     0     0 329610.596    0  544 330133.796 329610.596  0.16%     -   41s
     0     0 329623.436    0  590 330133.796 329623.436  0.15%     -   41s
     0     0 329623.436    0  196 330133.796 329623.436  0.15%     -   42s
     0     0 329623.436    0  310 330133.796 329623.436  0.15%     -   42s
     0     0 329623.436    0  418 330133.796 329623.436  0.15%     -   43s
     0     0 329623.436    0  529 330133.796 329623.436  0.15%     -   43s
     0     0 329623.436    0  416 330133.796 329623.436  0.15%     -   43s
     0     0 329623.436    0  522 330133.796 329623.436  0.15%     -   43s
     0     0 329623.436    0  448 330133.796 329623.436  0.15%     -   43s
     0     0 329641.498    0  559 330133.796 329641.498  0.15%     -   44s
     0     0 329649.997    0  565 330133.796 329649.997  0.15%     -   44s
     0     0 329658.902    0  578 330133.796 329658.902  0.14%     -   44s
     0     0 329665.889    0  551 330133.796 329665.889  0.14%     -   44s
     0     0 329676.732    0  512 330133.796 329676.732  0.14%     -   44s
     0     0 329679.051    0  542 330133.796 329679.051  0.14%     -   44s
     0     0 329688.879    0  548 330133.796 329688.879  0.13%     -   44s
     0     0 329688.995    0  572 330133.796 329688.995  0.13%     -   45s
     0     0 329690.912    0  579 330133.796 329690.912  0.13%     -   45s
     0     0 329690.912    0  179 330133.796 329690.912  0.13%     -   45s
     0     0 329690.912    0  267 330133.796 329690.912  0.13%     -   46s
     0     0 329690.912    0  345 330133.796 329690.912  0.13%     -   46s
     0     0 329690.912    0  419 330133.796 329690.912  0.13%     -   46s
     0     0 329690.912    0  501 330133.796 329690.912  0.13%     -   46s
     0     0 329690.912    0  438 330133.796 329690.912  0.13%     -   46s
     0     0 329690.912    0  487 330133.796 329690.912  0.13%     -   47s
     0     0 329693.242    0  467 330133.796 329693.242  0.13%     -   47s
     0     0 329699.709    0  526 330133.796 329699.709  0.13%     -   47s
     0     0 329703.031    0  504 330133.796 329703.031  0.13%     -   47s
     0     0 329703.653    0  504 330133.796 329703.653  0.13%     -   47s
     0     0 329704.196    0  497 330133.796 329704.196  0.13%     -   47s
     0     0 329704.480    0  498 330133.796 329704.480  0.13%     -   47s
     0     0 329706.497    0  493 330133.796 329706.497  0.13%     -   47s
     0     0 329706.497    0  493 330133.796 329706.497  0.13%     -   48s
     0     2 329706.497    0  493 330133.796 329706.497  0.13%     -   49s
    11    11 330085.395    6  327 330133.796 329740.519  0.12%  81.2   50s
H  457   143                    330087.73690 329895.526  0.06%  51.6   54s
   486   146     cutoff   11      330087.737 329896.844  0.06%  50.6   55s

Cutting planes:
  Gomory: 2
  Cover: 140
  Clique: 5
  MIR: 95
  GUB cover: 17

Explored 856 nodes (79003 simplex iterations) in 58.32 seconds
Thread count was 4 (of 4 available processors)

Optimal solution found (tolerance 1.00e-04)
Best objective 3.300877369000e+05, best bound 3.300748108131e+05, gap 0.0039%

Wrote result file 'C:\Users\Filippo\AppData\Local\Temp\2588-pulp.sol'

('Status:', 'Optimal')
('Total Cost of Ingredients per can = ', 330087.73690000013)
